NAME : amtsp
TYPE : ATSP
DIMENSION : 7
EDGE_WEIGHT_TYPE : EXPLICIT
EDGE_WEIGHT_FORMAT : FULL_MATRIX
EDGE_WEIGHT_SECTION
100000 -100000 100000 100000 100000 100000 100000 
100000 100000 -83 1717 2062 2056 1794 
0 0 100000 -230 -23 66 -108 
0 0 -230 100000 -221 -80 -151 
0 0 -23 -221 100000 -266 -187 
0 0 66 -80 -266 100000 -321 
0 0 -108 -151 -187 -321 100000 
